PROBLEM NAME: eil51_n6
KNAPSACK DATA TYPE: multiple strongly correlated
DIMENSION: 6
NUMBER OF ITEMS: 25
CAPACITY OF KNAPSACK: 6640
MIN SPEED: 0.1
MAX SPEED: 1
RENTING RATIO: 16.37
EDGE_WEIGHT_TYPE: CEIL_2D
NODE_COORD_SECTION	(INDEX, X, Y):
1	31	62
2	52	41
3	27	23
4	57	58
5	62	42
6	43	67
ITEMS SECTION	(INDEX, PROFIT, WEIGHT, ASSIGNED NODE NUMBER):
1	1128	928	6
2	1048	848	6
3	1013	813	6
4	990	790	6
5	973	773	6
6	953	753	4
7	952	752	4
8	882	682	4
9	852	652	4
10	847	647	4
11	805	605	5
12	688	488	5
13	677	477	5
14	593	393	5
15	574	374	5
16	564	264	2
17	564	364	2
18	553	353	2
19	534	234	2
20	445	245	2
21	442	242	3
22	425	225	3
23	312	112	3
24	311	111	3
25	250	50	3
